c preprocessed version of BN_107, 47 vertices, 724 edges
p td 47 724
0 1
0 4
0 6
0 25
0 22
0 14
0 23
0 28
0 7
0 8
0 9
0 24
0 10
3 0
11 0
13 0
5 0
19 0
26 0
15 0
17 0
21 0
27 0
29 0
30 0
31 0
1 2
3 1
13 1
26 1
15 1
21 1
29 1
30 1
31 1
3 2
13 2
26 2
15 2
21 2
29 2
30 2
31 2
3 4
3 6
3 7
3 8
3 9
3 12
3 18
3 16
3 20
3 25
3 14
3 22
3 23
3 28
3 11
3 13
3 5
19 3
26 3
15 3
17 3
21 3
27 3
29 3
30 3
31 3
5 4
19 4
5 6
5 7
5 8
5 9
5 10
11 5
5 12
5 14
13 5
5 20
5 22
5 23
5 24
19 5
15 5
17 5
21 5
29 5
6 7
6 8
6 9
6 16
6 12
6 20
11 6
13 6
19 6
15 6
17 6
21 6
29 6
7 8
7 9
7 12
7 18
11 7
13 7
19 7
17 7
21 7
29 7
8 9
8 10
11 8
13 8
19 8
17 8
21 8
9 10
11 9
13 9
19 9
17 9
21 9
11 10
13 10
19 10
21 10
11 12
11 18
11 16
11 14
11 22
11 23
11 28
11 13
19 11
26 11
15 11
17 11
21 11
27 11
29 11
30 11
31 11
13 12
21 12
13 14
13 16
13 20
13 25
13 22
13 23
13 24
19 13
26 13
15 13
17 13
21 13
29 13
30 13
31 13
15 14
17 14
21 14
29 14
15 16
15 22
15 23
15 24
15 25
15 28
19 15
26 15
15 17
15 21
15 27
15 29
15 30
15 31
17 16
29 16
17 18
17 22
17 23
17 24
17 25
19 17
26 17
17 21
17 27
17 29
17 30
17 31
19 18
29 18
19 20
19 22
19 23
19 26
19 21
19 27
19 29
19 30
19 31
21 20
21 22
21 23
21 24
21 25
26 21
21 27
21 29
21 30
21 31
22 23
23 24
26 27
26 29
26 30
26 31
27 28
27 29
27 30
27 31
29 28
29 30
29 31
30 31
32 19
32 26
32 3
32 33
32 11
32 34
32 35
32 15
32 13
32 17
32 36
32 37
32 38
32 21
32 39
32 46
32 27
32 29
32 40
32 41
32 0
32 30
32 42
32 31
32 43
32 44
32 1
32 45
32 5
32 4
32 6
32 25
32 2
32 22
32 23
32 28
32 7
32 8
32 9
32 24
32 12
32 20
33 0
33 42
33 43
33 1
33 45
33 4
33 6
33 2
33 22
33 23
33 28
33 7
33 8
33 9
33 16
33 24
33 10
33 12
33 3
33 11
33 34
33 35
33 13
33 36
33 46
33 44
33 5
33 19
33 26
33 15
33 17
33 37
33 38
33 21
33 39
33 27
33 29
33 40
33 41
33 30
33 31
34 0
34 42
34 43
34 1
34 2
34 3
34 45
34 4
34 6
34 7
34 8
34 9
34 16
34 20
34 25
34 14
34 22
34 23
34 24
34 28
34 11
34 35
34 13
34 36
34 46
34 44
34 5
34 19
34 26
34 15
34 17
34 37
34 38
34 21
34 39
34 27
34 29
34 40
34 41
34 30
34 31
35 0
35 42
35 43
35 1
35 2
35 3
35 45
35 6
35 7
35 8
35 9
35 10
35 11
35 12
35 14
35 22
35 23
35 28
35 13
35 36
35 46
35 44
35 5
35 19
35 26
35 15
35 17
35 37
35 38
35 21
35 39
35 27
35 29
35 40
35 41
35 30
35 31
36 0
36 42
36 43
36 3
36 45
36 6
36 7
36 8
36 9
36 10
36 11
36 12
36 13
36 16
36 18
36 25
36 22
36 23
36 24
36 28
36 46
36 44
36 5
36 19
36 15
36 17
36 37
36 38
36 21
36 39
36 27
36 29
36 40
36 41
36 30
36 31
37 19
37 26
37 15
37 17
37 3
37 11
37 13
37 38
37 21
37 39
37 46
37 27
37 29
37 40
37 41
37 0
37 30
37 42
37 31
37 43
37 44
37 1
37 45
37 5
37 6
37 25
37 22
37 14
37 23
37 28
37 7
37 8
37 9
37 10
37 12
37 18
38 19
38 26
38 15
38 17
38 21
38 27
38 29
38 41
38 0
38 30
38 42
38 31
38 43
38 1
38 45
38 4
38 6
38 2
38 22
38 23
38 28
38 7
38 16
38 24
38 12
38 20
38 18
38 3
38 11
38 13
38 39
38 46
38 40
38 44
38 5
39 19
39 26
39 15
39 17
39 21
39 3
39 11
39 13
39 46
39 27
39 29
39 40
39 41
39 0
39 30
39 42
39 31
39 43
39 44
39 1
39 45
39 5
39 4
39 6
39 25
39 2
39 22
39 14
39 7
39 8
39 9
39 10
39 12
39 20
39 18
40 46
40 19
40 26
40 15
40 17
40 21
40 27
40 29
40 3
40 11
40 13
40 41
40 0
40 30
40 42
40 31
40 43
40 44
40 1
40 45
40 5
40 6
40 25
40 2
40 22
40 14
40 23
40 7
40 8
40 9
40 16
40 24
40 12
40 20
40 18
41 46
41 19
41 26
41 15
41 17
41 21
41 27
41 29
41 0
41 30
41 42
41 31
41 43
41 1
41 45
41 4
41 6
41 25
41 22
41 23
41 28
41 7
41 8
41 9
41 24
41 10
41 20
41 3
41 11
41 13
41 44
41 5
42 46
42 0
42 43
42 1
42 45
42 4
42 25
42 2
42 22
42 23
42 3
42 11
42 13
42 44
42 5
42 19
42 26
42 15
42 17
42 21
42 29
42 30
42 31
43 46
43 0
43 1
43 45
43 4
43 6
43 25
43 2
43 22
43 14
43 23
43 7
43 8
43 9
43 16
43 10
43 18
43 3
43 11
43 13
43 44
43 5
43 19
43 26
43 15
43 17
43 21
43 29
43 30
43 31
44 46
44 0
44 3
44 45
44 4
44 6
44 7
44 8
44 9
44 11
44 14
44 13
44 16
44 20
44 22
44 23
44 5
44 19
44 15
44 17
44 21
44 29
44 30
45 46
45 0
45 3
45 4
45 6
45 25
45 14
45 7
45 8
45 9
45 20
45 18
45 11
45 13
45 5
45 19
45 15
45 17
45 21
45 29
46 0
46 1
46 2
46 3
46 4
46 6
46 7
46 8
46 9
46 11
46 12
46 13
46 16
46 18
46 20
46 25
46 22
46 23
46 24
46 5
46 19
46 26
46 15
46 17
46 21
46 29
46 30
46 31
